125430.0
2196
0 7 10 14 15 16 19 20 22 27 28 30 33 34 39 40 42 45 46 47 50 51 52 53 54 55 56 60 61 62 63 65 66 68 73 74 80 82 84 85 86 89 91 92 93 96 98 100 103 104 105 110 111 115 116 118 119 122 123 126 127 131 132 133 135 136 138 139 141 144 147 150 151 153 154 155 157 159 161 163 169 172 173 174 175 176 177 178 180 181 184 185 186 189 191 192 195 196 197 